# Solution for model maxcut
# Objective value = 16
x[0] 0
x[1] 1
x[2] 0
x[3] 0
x[4] 1
x[5] 0
x[6] 1
x[7] 0
x[8] 0
x[9] 1
y[0,0] 0
y[0,1] 1
y[0,2] 0
y[0,3] 0
y[0,4] 1
y[0,5] 0
y[0,6] 0
y[0,7] 0
y[0,8] 0
y[0,9] 1
y[1,0] 0
y[1,1] 0
y[1,2] 1
y[1,3] 1
y[1,4] 0
y[1,5] 0
y[1,6] 0
y[1,7] 1
y[1,8] 1
y[1,9] 0
y[2,0] 0
y[2,1] 0
y[2,2] 0
y[2,3] 0
y[2,4] 1
y[2,5] 0
y[2,6] 1
y[2,7] 0
y[2,8] 0
y[2,9] 0
y[3,0] 0
y[3,1] 0
y[3,2] 0
y[3,3] 0
y[3,4] 1
y[3,5] 0
y[3,6] 0
y[3,7] 0
y[3,8] 0
y[3,9] 1
y[4,0] 0
y[4,1] 0
y[4,2] 0
y[4,3] 0
y[4,4] 0
y[4,5] 0
y[4,6] 0
y[4,7] 1
y[4,8] 0
y[4,9] 0
y[5,0] 0
y[5,1] 0
y[5,2] 0
y[5,3] 0
y[5,4] 0
y[5,5] 0
y[5,6] 1
y[5,7] 0
y[5,8] 0
y[5,9] 0
y[6,0] 0
y[6,1] 0
y[6,2] 0
y[6,3] 0
y[6,4] 0
y[6,5] 0
y[6,6] 0
y[6,7] 1
y[6,8] 1
y[6,9] 0
y[7,0] 0
y[7,1] 0
y[7,2] 0
y[7,3] 0
y[7,4] 0
y[7,5] 0
y[7,6] 0
y[7,7] 0
y[7,8] 0
y[7,9] 0
y[8,0] 0
y[8,1] 0
y[8,2] 0
y[8,3] 0
y[8,4] 0
y[8,5] 0
y[8,6] 0
y[8,7] 0
y[8,8] 0
y[8,9] 1
y[9,0] 0
y[9,1] 0
y[9,2] 0
y[9,3] 0
y[9,4] 0
y[9,5] 0
y[9,6] 0
y[9,7] 0
y[9,8] 0
y[9,9] 0
